Speck32/MILP/sol/6Round_622.sol
# Objective value = 16.0
pro0Rd0 1.0408340855860843e-17
pro1Rd0 1.3010426069826053e-17
pro2Rd0 -0.0
pro3Rd0 1.0
pro4Rd0 -0.0
pro5Rd0 1.0
pro6Rd0 -6.938893903907228e-18
pro7Rd0 1.0
pro8Rd0 0.0
pro9Rd0 -5.204170427930421e-18
pro10Rd0 -0.0
pro11Rd0 0.0
pro12Rd0 1.0
pro13Rd0 4.85722573273506e-17
pro14Rd0 -0.0
pro0Rd1 3.122502256758253e-17
pro1Rd1 0.0
pro2Rd1 3.122502256758253e-17
pro3Rd1 1.0
pro4Rd1 -0.0
pro5Rd1 -0.0
pro6Rd1 2.6020852139652106e-17
pro7Rd1 4.163336342344337e-17
pro8Rd1 -0.0
pro9Rd1 4.683753385137379e-17
pro10Rd1 1.0
pro11Rd1 -6.938893903907228e-18
pro12Rd1 1.0
pro13Rd1 -0.0
pro14Rd1 0.0
pro0Rd2 -1.0408340855860843e-17
pro1Rd2 1.0
pro2Rd2 0.0
pro3Rd2 -0.0
pro4Rd2 1.249000902703301e-16
pro5Rd2 1.249000902703301e-16
pro6Rd2 -0.0
pro7Rd2 6.245004513516506e-17
pro8Rd2 -0.0
pro9Rd2 0.0
pro10Rd2 -0.0
pro11Rd2 0.0
pro12Rd2 -0.0
pro13Rd2 0.0
pro14Rd2 3.122502256758253e-17
pro0Rd3 0.0
pro1Rd3 0.0
pro2Rd3 -5.551115123125783e-17
pro3Rd3 -1.6653345369377348e-16
pro4Rd3 1.249000902703301e-16
pro5Rd3 -0.0
pro6Rd3 -0.0
pro7Rd3 -0.0
pro8Rd3 -4.85722573273506e-17
pro9Rd3 -4.85722573273506e-17
pro10Rd3 -4.85722573273506e-17
pro11Rd3 1.249000902703301e-16
pro12Rd3 3.122502256758253e-17
pro13Rd3 -0.0
pro14Rd3 -0.0
pro0Rd4 -6.245004513516506e-17
pro1Rd4 8.326672684688674e-17
pro2Rd4 -5.551115123125783e-17
pro3Rd4 1.3877787807814457e-16
pro4Rd4 0.0
pro5Rd4 0.0
pro6Rd4 1.0
pro7Rd4 0.0
pro8Rd4 -4.85722573273506e-17
pro9Rd4 2.7755575615628914e-17
pro10Rd4 -0.0
pro11Rd4 -0.0
pro12Rd4 -1.0408340855860843e-16
pro13Rd4 1.0
pro14Rd4 0.0
pro0Rd5 -0.0
pro1Rd5 0.0
pro2Rd5 -3.122502256758253e-17
pro3Rd5 -0.0
pro4Rd5 0.9999999999999997
pro5Rd5 -0.0
pro6Rd5 1.0000000000000002
pro7Rd5 1.0234868508263162e-16
pro8Rd5 -0.0
pro9Rd5 1.0
pro10Rd5 1.0
pro11Rd5 0.9999999999999997
pro12Rd5 0.0
pro13Rd5 1.0
pro14Rd5 -0.0
p0 0.0
p1 1.0
p2 0.0
p3 7.28583859910259e-17
p4 0.0
p5 3.122502256758253e-17
p6 1.0
p7 4.85722573273506e-17
p8 0.0
p9 -0.0
p10 -0.0
p11 1.3010426069826053e-17
p12 4.2500725161431774e-17
p13 1.0000000000000002
p14 -6.938893903907228e-18
p15 1.0
p16 -0.0
p17 -0.0
p18 2.6020852139652106e-17
p19 4.2500725161431774e-17
p20 -0.0
p21 -6.938893903907228e-18
p22 -1.249000902703301e-16
p23 -6.938893903907228e-18
p24 1.0
p25 -0.0
p26 6.245004513516506e-17
p27 0.0
p28 3.122502256758253e-17
p29 0.0
p30 4.85722573273506e-17
p31 -0.0
p0Rd1 2.6020852139652106e-17
p16Rd1 -0.0
temp0Rnd0 2.6020852139652106e-17
p1Rd1 1.0408340855860843e-17
p17Rd1 3.122502256758253e-17
temp1Rnd0 3.122502256758253e-17
p2Rd1 -0.0
p18Rd1 -0.0
temp2Rnd0 0.0
p3Rd1 4.2500725161431774e-17
p19Rd1 6.245004513516506e-17
temp3Rnd0 6.245004513516506e-17
p4Rd1 1.0
p20Rd1 1.0
temp4Rnd0 1.0
p5Rd1 -6.938893903907228e-18
p21Rd1 -0.0
temp5Rnd0 -6.938893903907228e-18
p6Rd1 1.0
p22Rd1 0.0
temp6Rnd0 1.0
p7Rd1 0.0
p23Rd1 -0.0
temp7Rnd0 0.0
p8Rd1 -0.0
p24Rd1 6.245004513516506e-17
temp8Rnd0 6.245004513516506e-17
p9Rd1 0.0
p25Rd1 -0.0
temp9Rnd0 0.0
p10Rd1 9.367506770274758e-17
p26Rd1 4.683753385137379e-17
temp10Rnd0 9.367506770274758e-17
p11Rd1 0.0
p27Rd1 0.0
temp11Rnd0 0.0
p12Rd1 3.122502256758253e-17
p28Rd1 -1.0408340855860843e-17
temp12Rnd0 3.122502256758253e-17
p13Rd1 1.0
p29Rd1 1.0
temp13Rnd0 1.0
p14Rd1 -0.0
p30Rd1 0.0
temp14Rnd0 0.0
p15Rd1 0.0
p31Rd1 0.0
temp15Rnd0 0.0
temp0 0.0
p0Rd2 -0.0
p16Rd2 0.0
temp0Rnd1 0.0
p1Rd2 6.245004513516506e-17
p17Rd2 -0.0
temp1Rnd1 6.245004513516506e-17
p2Rd2 0.0
p18Rd2 1.0
temp2Rnd1 1.0
p3Rd2 -0.0
p19Rd2 0.0
temp3Rnd1 0.0
p4Rd2 0.0
p20Rd2 0.0
temp4Rnd1 0.0
p5Rd2 -0.0
p21Rd2 -0.0
temp5Rnd1 0.0
p6Rd2 -0.0
p22Rd2 6.245004513516506e-17
temp6Rnd1 6.245004513516506e-17
p7Rd2 0.0
p23Rd2 -0.0
temp7Rnd1 -0.0
p8Rd2 3.122502256758253e-17
p24Rd2 6.245004513516506e-17
temp8Rnd1 6.245004513516506e-17
p9Rd2 -0.0
p25Rd2 0.0
temp9Rnd1 0.0
p10Rd2 -1.0408340855860843e-17
p26Rd2 0.0
temp10Rnd1 -1.0408340855860843e-17
p11Rd2 1.0
p27Rd2 0.0
temp11Rnd1 1.0
p12Rd2 -0.0
p28Rd2 0.0
temp12Rnd1 0.0
p13Rd2 -0.0
p29Rd2 0.0
temp13Rnd1 0.0
p14Rd2 -0.0
p30Rd2 0.0
temp14Rnd1 0.0
p15Rd2 -0.0
p31Rd2 3.122502256758253e-17
temp15Rnd1 3.122502256758253e-17
temp1 0.0
p0Rd3 -0.0
p16Rd3 1.0
temp0Rnd2 1.0
p1Rd3 -0.0
p17Rd3 0.0
temp1Rnd2 0.0
p2Rd3 0.0
p18Rd3 -0.0
temp2Rnd2 0.0
p3Rd3 -0.0
p19Rd3 0.0
temp3Rnd2 0.0
p4Rd3 -0.0
p20Rd3 6.245004513516506e-17
temp4Rnd2 6.245004513516506e-17
p5Rd3 1.249000902703301e-16
p21Rd3 1.249000902703301e-16
temp5Rnd2 1.249000902703301e-16
p6Rd3 6.245004513516506e-17
p22Rd3 -0.0
temp6Rnd2 6.245004513516506e-17
p7Rd3 0.0
p23Rd3 0.0
temp7Rnd2 0.0
p8Rd3 0.0
p24Rd3 0.0
temp8Rnd2 0.0
p9Rd3 0.0
p25Rd3 0.0
temp9Rnd2 0.0
p10Rd3 0.0
p26Rd3 0.0
temp10Rnd2 0.0
p11Rd3 -0.0
p27Rd3 -0.0
temp11Rnd2 0.0
p12Rd3 -0.0
p28Rd3 -0.0
temp12Rnd2 0.0
p13Rd3 -0.0
p29Rd3 3.122502256758253e-17
temp13Rnd2 3.122502256758253e-17
p14Rd3 -0.0
p30Rd3 0.0
temp14Rnd2 -0.0
p15Rd3 0.0
p31Rd3 0.0
temp15Rnd2 -0.0
temp2 3.122502256758253e-17
p0Rd4 1.0
p16Rd4 1.0
temp0Rnd3 1.0
p1Rd4 0.0
p17Rd4 0.0
temp1Rnd3 0.0
p2Rd4 0.0
p18Rd4 6.245004513516506e-17
temp2Rnd3 6.245004513516506e-17
p3Rd4 -5.551115123125783e-17
p19Rd4 8.326672684688674e-17
temp3Rnd3 8.326672684688674e-17
p4Rd4 -1.3877787807814457e-16
p20Rd4 -1.3877787807814457e-16
temp4Rnd3 -1.3877787807814457e-16
p5Rd4 1.249000902703301e-16
p21Rd4 1.249000902703301e-16
temp5Rnd3 1.249000902703301e-16
p6Rd4 -0.0
p22Rd4 -0.0
temp6Rnd3 0.0
p7Rd4 -0.0
p23Rd4 0.0
temp7Rnd3 0.0
p8Rd4 -0.0
p24Rd4 0.0
temp8Rnd3 0.0
p9Rd4 -4.85722573273506e-17
p25Rd4 -4.85722573273506e-17
temp9Rnd3 -4.85722573273506e-17
p10Rd4 -4.85722573273506e-17
p26Rd4 -6.591949208711867e-17
temp10Rnd3 -6.418476861114186e-17
p11Rd4 -4.85722573273506e-17
p27Rd4 -1.3877787807814457e-16
temp11Rnd3 -6.938893903907228e-17
p12Rd4 1.249000902703301e-16
p28Rd4 1.249000902703301e-16
temp12Rnd3 1.249000902703301e-16
p13Rd4 1.0408340855860843e-16
p29Rd4 1.0408340855860843e-16
temp13Rnd3 1.0408340855860843e-16
p14Rd4 0.0
p30Rd4 1.0
temp14Rnd3 1.0
p15Rd4 -0.0
p31Rd4 -0.0
temp15Rnd3 0.0
temp3 0.0
p0Rd5 1.0
p16Rd5 1.0000000000000002
temp0Rnd4 1.0000000000000002
p1Rd5 -1.0842021724855044e-17
p17Rd5 -8.326672684688674e-17
temp1Rnd4 -1.0842021724855044e-17
p2Rd5 6.245004513516506e-17
p18Rd5 1.0061396160665481e-16
temp2Rnd4 9.71445146547012e-17
p3Rd5 -5.551115123125783e-17
p19Rd5 9.020562075079397e-17
temp3Rnd4 1.6653345369377348e-16
p4Rd5 0.0
p20Rd5 0.0
temp4Rnd4 0.0
p5Rd5 1.249000902703301e-16
p21Rd5 1.249000902703301e-16
temp5Rnd4 1.249000902703301e-16
p6Rd5 0.0
p22Rd5 0.0
temp6Rnd4 -0.0
p7Rd5 1.0
p23Rd5 1.0000000000000002
temp7Rnd4 1.0
p8Rd5 0.0
p24Rd5 -6.591949208711867e-17
temp8Rnd4 -6.591949208711867e-17
p9Rd5 -0.0
p25Rd5 6.245004513516506e-17
temp9Rnd4 -3.469446951953614e-17
p10Rd5 -8.326672684688674e-17
p26Rd5 -1.1102230246251565e-16
temp10Rnd4 5.551115123125783e-17
p11Rd5 4.5102810375396984e-17
p27Rd5 0.0
temp11Rnd4 7.28583859910259e-17
p12Rd5 1.249000902703301e-16
p28Rd5 0.9999999999999999
temp12Rnd4 1.0
p13Rd5 0.0
p29Rd5 0.0
temp13Rnd4 0.0
p14Rd5 1.0
p30Rd5 0.0
temp14Rnd4 1.0
p15Rd5 -0.0
p31Rd5 0.0
temp15Rnd4 0.0
temp4 0.0
p0Rd6 1.0
p16Rd6 1.0
temp0Rnd5 1.0
p1Rd6 -8.326672684688674e-17
p17Rd6 -3.3306690738754696e-16
temp1Rnd5 -8.326672684688674e-17
p2Rd6 4.5102810375396984e-17
p18Rd6 -4.5102810375396984e-17
temp2Rnd5 0.0
p3Rd6 -3.469446951953614e-17
p19Rd6 2.185751579730777e-16
temp3Rnd5 1.249000902703301e-16
p4Rd6 0.0
p20Rd6 0.0
temp4Rnd5 0.0
p5Rd6 0.9999999999999999
p21Rd6 4.2327252813834093e-16
temp5Rnd5 1.0000000000000002
p6Rd6 0.0
p22Rd6 6.591949208711867e-17
temp6Rnd5 0.0
p7Rd6 -2.0816681711721685e-17
p23Rd6 4.163336342344337e-17
temp7Rnd5 4.163336342344337e-17
p8Rd6 -4.683753385137379e-17
p24Rd6 0.0
temp8Rnd5 -4.683753385137379e-17
p9Rd6 6.245004513516506e-17
p25Rd6 -6.245004513516506e-17
temp9Rnd5 0.0
p10Rd6 1.0
p26Rd6 -0.0
temp10Rnd5 1.0
p11Rd6 1.0
p27Rd6 1.0
temp11Rnd5 1.0
p12Rd6 1.0
p28Rd6 1.0
temp12Rnd5 1.0
p13Rd6 0.0
p29Rd6 0.0
temp13Rnd5 0.0
p14Rd6 1.0
p30Rd6 -1.491862189340054e-16
temp14Rnd5 1.0
p15Rd6 0.0
p31Rd6 -8.326672684688674e-17
temp15Rnd5 -8.326672684688674e-17
temp5 0.0
